W=11;
H=5;

MAX_TIME=26;
MAX_TRACKS=9;

TARGET=(5,11);

TRAINS=[(5,2,RIGHT),(2,1,RIGHT)];

INIT_POS=[
(1,3,STRAIGHT_RL),
(1,5,STRAIGHT_RL),
(1,7,STRAIGHT_RL),
(1,9,STRAIGHT_RL),
(2,1,STRAIGHT_RL),
(2,3,ROCK),
(2,4,STRAIGHT_TD),
(2,5,ROCK),
(2,6,STRAIGHT_TD),
(2,7,ROCK),
(2,8,STRAIGHT_TD),
(2,9,ROCK),
(3,3,STRAIGHT_RL),
(3,5,STRAIGHT_RL),
(3,7,STRAIGHT_RL),
(3,9,STRAIGHT_RL),
(4,1,ROCK),
(4,2,ROCK),
(4,3,ROCK),
(4,4,ROCK),
(4,5,ROCK),
(4,6,ROCK),
(4,7,ROCK),
(4,8,ROCK),
(4,9,ROCK),
(4,10,ROCK),
(4,11,ROCK),
(5,2,STRAIGHT_RL),
(5,3,STRAIGHT_RL),
(5,4,STRAIGHT_RL),
(5,5,STRAIGHT_RL),
(5,6,STRAIGHT_RL),
(5,7,STRAIGHT_RL),
(5,8,STRAIGHT_RL),
(5,9,STRAIGHT_RL),
(5,10,STRAIGHT_RL),
(5,11,STRAIGHT_RL),
];
TUNNEL_PAIRS=[
  (2, 11, LEFT, 5, 1, RIGHT),
];

GATES=[
(5,3,2,false),
(5,4,1,false),
(5,5,4,false),
(5,6,2,false),
(5,7,1,false),
(5,8,4,false),
(5,9,3,false),
];
ACTIVATIONS=[
(1,3,1),
(1,5,4),
(1,7,1),
(1,9,4),
(2,4,1),
(2,6,2),
(2,8,3),
(3,3,2),
(3,5,3),
(3,7,3),
(3,9,2),
];

DSWITCHES=[];

STATIONS=[];
